(set-logic HORN)
(set-info :source |
    Benchmark: C_VC
    Output by Princess (http://www.philipp.ruemmer.org/princess.shtml)
|)
(set-info :status sat)
(declare-fun inv_main21 (Int Int Int Int Int Int Int Int Int) Bool)
(declare-fun inv_main29 (Int Int Int Int Int Int Int Int Int Int Int) Bool)
(declare-fun inv_main32 (Int Int Int Int Int Int Int Int Int Int Int) Bool)
(declare-fun inv_main40 (Int Int Int Int Int Int Int Int Int Int Int Int Int) Bool)
(declare-fun inv_main5 (Int Int Int Int Int) Bool)
(assert (forall ((var0 Int) (var1 Int) (var2 Int)) (inv_main5 0 0 var2 var1 var0)))
(assert (forall ((var0 Int) (var1 Int) (var2 Int) (var3 Int) (var4 Int) (var5 Int) (var6 Int) (var7 Int) (var8 Int) (var9 Int) (var10 Int) (var11 Int) (var12 Int) (var13 Int)) (or (not (and (inv_main5 var13 var12 var11 var10 var9) (and (and (= var8 0) (and (and (and (and (and (and (and (= var7 var13) (= var6 var12)) (= var5 var11)) (= var4 var10)) (= var3 var2)) (= var1 0)) (= var0 0)) (or (and (<= 0 (+ var2 (- 1))) (= var8 1)) (and (not (<= 0 (+ var2 (- 1)))) (= var8 0))))) (<= 0 (+ var2 (- 1)))))) (inv_main21 var7 var6 var5 var4 var3 var1 var0 var8 var8))))
(assert (forall ((var0 Int) (var1 Int) (var2 Int) (var3 Int) (var4 Int) (var5 Int) (var6 Int) (var7 Int) (var8 Int) (var9 Int) (var10 Int)) (or (not (and (inv_main32 var10 var9 var8 var7 var6 var5 var4 var3 var2 var1 var0) (and (<= 0 (+ (+ var6 (* (- 1) (+ var5 1))) (- 1))) (not (<= 0 (+ (+ 8 (* (- 1) var4)) (- 1))))))) (inv_main32 var10 var9 var8 var7 var6 (+ var5 1) 0 var3 var2 var1 var0))))
(assert (forall ((var0 Int) (var1 Int) (var2 Int) (var3 Int) (var4 Int) (var5 Int) (var6 Int) (var7 Int) (var8 Int) (var9 Int) (var10 Int) (var11 Int) (var12 Int) (var13 Int) (var14 Int) (var15 Int) (var16 Int) (var17 Int) (var18 Int) (var19 Int) (var20 Int) (var21 Int) (var22 Int) (var23 Int) (var24 Int) (var25 Int) (var26 Int) (var27 Int) (var28 Int) (var29 Int) (var30 Int) (var31 Int) (var32 Int)) (or (not (and (inv_main32 var32 var31 var30 var29 var28 var27 var26 var25 var24 var23 var22) (and (and (not (= var21 0)) (and (and (and (and (and (and (and (and (and (= var20 var19) (= var18 var17)) (= var16 var15)) (= var14 var13)) (= var12 var11)) (= var10 var9)) (= var8 var7)) (= var6 var5)) (= var4 var3)) (or (and (<= 0 (+ (+ var11 (* (- 1) (+ (+ var11 (- 1)) (* (- 1) var9)))) (- 1))) (= var21 1)) (and (not (<= 0 (+ (+ var11 (* (- 1) (+ (+ var11 (- 1)) (* (- 1) var9)))) (- 1)))) (= var21 0))))) (and (and (not (= var2 0)) (and (and (and (and (and (and (and (and (and (and (and (= var19 var32) (= var17 var31)) (= var15 var30)) (= var13 var29)) (= var11 var28)) (= var9 var27)) (= var7 var26)) (= var5 var25)) (= var3 var24)) (= var1 var23)) (= var0 var22)) (or (and (<= 0 (+ (+ var28 (- 1)) (* (- 1) var27))) (= var2 1)) (and (not (<= 0 (+ (+ var28 (- 1)) (* (- 1) var27)))) (= var2 0))))) (<= 0 (+ (+ 8 (* (- 1) var26)) (- 1))))))) (inv_main32 var20 var18 var16 var14 var12 var10 (+ var8 1) var6 var4 var21 var21))))
(assert (forall ((var0 Int) (var1 Int) (var2 Int) (var3 Int) (var4 Int) (var5 Int) (var6 Int) (var7 Int) (var8 Int) (var9 Int) (var10 Int) (var11 Int) (var12 Int) (var13 Int) (var14 Int) (var15 Int) (var16 Int) (var17 Int) (var18 Int) (var19 Int) (var20 Int) (var21 Int) (var22 Int) (var23 Int)) (or (not (and (inv_main5 var23 var22 var21 var20 var19) (and (and (and (and (not (= var18 0)) (and (and (and (and (and (and (and (and (and (= var17 var16) (= var15 var14)) (= var13 var12)) (= var11 var10)) (= var9 var8)) (= var7 var6)) (= var5 var4)) (= var3 var2)) (= var1 var2)) (or (and (<= 0 (+ (+ var8 (* (- 1) (+ (+ var8 (- 1)) (* (- 1) var6)))) (- 1))) (= var18 1)) (and (not (<= 0 (+ (+ var8 (* (- 1) (+ (+ var8 (- 1)) (* (- 1) var6)))) (- 1)))) (= var18 0))))) (not (= var2 0))) (and (and (and (and (and (and (and (= var16 var23) (= var14 var22)) (= var12 var21)) (= var10 var20)) (= var8 var0)) (= var6 0)) (= var4 0)) (or (and (<= 0 (+ var0 (- 1))) (= var2 1)) (and (not (<= 0 (+ var0 (- 1)))) (= var2 0))))) (<= 0 (+ var0 (- 1)))))) (inv_main32 var17 var15 var13 var11 var9 var7 (+ var5 1) var3 var1 var18 var18))))
(assert (forall ((var0 Int) (var1 Int) (var2 Int) (var3 Int) (var4 Int) (var5 Int) (var6 Int) (var7 Int) (var8 Int) (var9 Int) (var10 Int) (var11 Int) (var12 Int) (var13 Int) (var14 Int) (var15 Int) (var16 Int) (var17 Int) (var18 Int) (var19 Int) (var20 Int) (var21 Int) (var22 Int)) (or (not (and (inv_main32 var22 var21 var20 var19 var18 var17 var16 var15 var14 var13 var12) (and (and (= var11 0) (and (and (and (and (and (and (and (and (and (and (and (= var10 var22) (= var9 var21)) (= var8 var20)) (= var7 var19)) (= var6 var18)) (= var5 var17)) (= var4 var16)) (= var3 var15)) (= var2 var14)) (= var1 var13)) (= var0 var12)) (or (and (<= 0 (+ (+ var18 (- 1)) (* (- 1) var17))) (= var11 1)) (and (not (<= 0 (+ (+ var18 (- 1)) (* (- 1) var17)))) (= var11 0))))) (<= 0 (+ (+ 8 (* (- 1) var16)) (- 1)))))) (inv_main40 var10 var9 var8 var7 var6 var5 var4 var3 var2 var1 var0 var11 var11))))
(assert (forall ((var0 Int) (var1 Int) (var2 Int) (var3 Int) (var4 Int) (var5 Int) (var6 Int) (var7 Int) (var8 Int) (var9 Int) (var10 Int) (var11 Int) (var12 Int) (var13 Int) (var14 Int) (var15 Int) (var16 Int) (var17 Int) (var18 Int) (var19 Int) (var20 Int) (var21 Int) (var22 Int) (var23 Int) (var24 Int) (var25 Int) (var26 Int) (var27 Int) (var28 Int) (var29 Int) (var30 Int) (var31 Int) (var32 Int)) (or (not (and (inv_main32 var32 var31 var30 var29 var28 var27 var26 var25 var24 var23 var22) (and (and (= var21 0) (and (and (and (and (and (and (and (and (and (= var20 var19) (= var18 var17)) (= var16 var15)) (= var14 var13)) (= var12 var11)) (= var10 var9)) (= var8 var7)) (= var6 var5)) (= var4 var3)) (or (and (<= 0 (+ (+ var11 (* (- 1) (+ (+ var11 (- 1)) (* (- 1) var9)))) (- 1))) (= var21 1)) (and (not (<= 0 (+ (+ var11 (* (- 1) (+ (+ var11 (- 1)) (* (- 1) var9)))) (- 1)))) (= var21 0))))) (and (and (not (= var2 0)) (and (and (and (and (and (and (and (and (and (and (and (= var19 var32) (= var17 var31)) (= var15 var30)) (= var13 var29)) (= var11 var28)) (= var9 var27)) (= var7 var26)) (= var5 var25)) (= var3 var24)) (= var1 var23)) (= var0 var22)) (or (and (<= 0 (+ (+ var28 (- 1)) (* (- 1) var27))) (= var2 1)) (and (not (<= 0 (+ (+ var28 (- 1)) (* (- 1) var27)))) (= var2 0))))) (<= 0 (+ (+ 8 (* (- 1) var26)) (- 1))))))) (inv_main29 var20 var18 var16 var14 var12 var10 var8 var6 var4 var21 var21))))
(assert (forall ((var0 Int) (var1 Int) (var2 Int) (var3 Int) (var4 Int) (var5 Int) (var6 Int) (var7 Int) (var8 Int) (var9 Int) (var10 Int) (var11 Int) (var12 Int) (var13 Int) (var14 Int) (var15 Int) (var16 Int) (var17 Int) (var18 Int) (var19 Int) (var20 Int) (var21 Int) (var22 Int) (var23 Int)) (or (not (and (inv_main5 var23 var22 var21 var20 var19) (and (and (and (and (= var18 0) (and (and (and (and (and (and (and (and (and (= var17 var16) (= var15 var14)) (= var13 var12)) (= var11 var10)) (= var9 var8)) (= var7 var6)) (= var5 var4)) (= var3 var2)) (= var1 var2)) (or (and (<= 0 (+ (+ var8 (* (- 1) (+ (+ var8 (- 1)) (* (- 1) var6)))) (- 1))) (= var18 1)) (and (not (<= 0 (+ (+ var8 (* (- 1) (+ (+ var8 (- 1)) (* (- 1) var6)))) (- 1)))) (= var18 0))))) (not (= var2 0))) (and (and (and (and (and (and (and (= var16 var23) (= var14 var22)) (= var12 var21)) (= var10 var20)) (= var8 var0)) (= var6 0)) (= var4 0)) (or (and (<= 0 (+ var0 (- 1))) (= var2 1)) (and (not (<= 0 (+ var0 (- 1)))) (= var2 0))))) (<= 0 (+ var0 (- 1)))))) (inv_main29 var17 var15 var13 var11 var9 var7 var5 var3 var1 var18 var18))))
(assert (forall ((var0 Int) (var1 Int) (var2 Int) (var3 Int) (var4 Int) (var5 Int) (var6 Int) (var7 Int) (var8 Int)) (not (inv_main21 var8 var7 var6 var5 var4 var3 var2 var1 var0))))
(assert (forall ((var0 Int) (var1 Int) (var2 Int) (var3 Int) (var4 Int) (var5 Int) (var6 Int) (var7 Int) (var8 Int) (var9 Int) (var10 Int)) (not (inv_main29 var10 var9 var8 var7 var6 var5 var4 var3 var2 var1 var0))))
(assert (forall ((var0 Int) (var1 Int) (var2 Int) (var3 Int) (var4 Int) (var5 Int) (var6 Int) (var7 Int) (var8 Int) (var9 Int) (var10 Int) (var11 Int) (var12 Int)) (not (inv_main40 var12 var11 var10 var9 var8 var7 var6 var5 var4 var3 var2 var1 var0))))
(check-sat)
